benchmarks_vrp/CMT2/min_c/CMT2_2.vrp
NAME: CMT2_2
TYPE: CVRP
COMMENT: 835.26 - Cluster Nr.2
DIMENSION: 10
CAPACITY: 140
EDGE_WEIGHT_TYPE: EUC_2D
NODE_COORD_TYPE: TWOD_COORDS
NODE_COORD_SECTION: 
5 27 24
6 33 34
7 29 39
10 20 30
9 36 26
2 26 29
3 22 22
1 40 40
4 30 20
8 21 36
DEPOT_SECTION: 
1
-1
DEMAND_SECTION: 
7 12
10 11
2 27
6 19
1 0
3 18
4 18
8 19
5 6
9 26
EOF
