benchmarks_vrp/CMT2/min_c/CMT2_2.tour
NAME: CMT2_2 solution
TYPE: TOUR
TOUR_SECTION:
1 6 -1
1 9 4 5 3 2 10 8 7 -1
-1
EOF